100
743 670
998 481
68 729
734 100
573 508
385 540
297 384
622 694
440 475
515 684
504 534
583 298
429 230
525 475
92 632
677 530
924 870
645 150
46 215
250 37
467 644
924 257
960 390
948 306
307 823
873 733
826 715
987 901
913 214
288 184
897 4
951 146
85 21
633 559
143 173
960 833
290 205
4 995
394 911
454 140
883 396
444 199
513 131
684 234
684 875
452 582
170 103
853 486
326 377
330 124
63 475
897 830
908 200
842 276
459 774
875 906
481 387
337 266
57 766
68 578
223 91
713 729
788 468
252 541
382 984
593 786
766 888
572 884
891 137
640 487
753 14
521 534
568 469
364 625
248 915
327 862
591 483
119 174
972 245
416 395
66 361
172 615
302 397
678 408
80 300
463 791
506 781
565 40
964 331
444 915
64 908
855 626
796 926
476 546
472 985
93 644
403 836
949 562
418 433
471 259
